Base=4;
C=74;
start_setup=[|0,0,0,0,0,13,0,4,14,0,0,0,0,2,0,16
             |1,0,0,0,0,0,0,0,0,0,13,0,5,0,0,11
             |0,4,0,0,0,6,0,12,0,0,0,0,0,0,0,0
             |0,0,0,0,2,14,7,0,0,0,3,0,0,0,8,0
             |0,0,0,4,0,0,0,0,0,0,0,0,11,5,15,0
             |0,0,0,0,0,0,0,6,0,0,12,0,0,9,0,0
             |0,0,0,2,0,0,9,0,0,0,0,11,0,0,7,0
             |15,0,12,0,0,0,0,0,0,9,0,0,2,0,1,0
             |0,2,1,11,9,0,0,0,13,0,0,0,0,0,0,0
             |0,0,0,0,1,0,0,0,0,2,11,0,0,0,13,7
             |0,0,0,0,0,0,13,0,0,1,4,0,14,0,11,15
             |7,13,0,0,0,0,0,0,5,0,9,0,0,0,0,0
             |4,3,0,0,0,7,0,0,0,0,0,9,16,0,0,0
             |8,0,0,0,0,0,14,0,4,0,2,0,12,11,10,0
             |0,11,10,0,0,3,0,1,0,15,14,13,0,0,0,0
             |0,0,0,0,0,11,0,9,8,7,6,5,4,3,0,0
|];
target_sum=[54,50,45,31,14,3,47,37,39,67,18,17,82,10,14,44,29,40,47,37,8,3,4,52,23,19,4,8,46,14,11,12,51,6,28,21,72,20,3,31,63,14,10,26,57,21,40,18,3,25,26,39,41,82,20,34,78,55,36,23,74,45,10,1,2,19,41,3,19,15,19,16,30,10];
tile2cage=[
18,18,18,45,45,45,25,56,56,59,59,17,17,65,50,50
,18,18,18,18,68,45,25,56,30,30,59,17,17,54,54,54
,16,16,57,57,45,45,45,36,36,21,59,69,70,54,54,14
,16,16,57,57,57,15,71,40,40,13,13,69,12,54,54,27
,16,61,57,57,72,72,71,40,40,13,13,13,12,12,54,38
,61,61,57,57,19,19,31,31,10,13,13,9,9,9,9,38
,61,61,33,33,19,19,47,22,10,10,13,1,1,1,26,26
,61,61,33,33,19,73,47,47,10,10,8,34,1,1,52,52
,66,61,64,33,43,73,47,60,10,42,8,6,1,1,52,52
,66,61,23,44,43,73,48,60,10,42,8,5,7,35,62,52
,63,44,44,44,11,11,48,48,10,8,8,7,7,35,62,52
,55,55,4,4,11,58,58,58,3,74,8,7,39,62,62,62
,2,2,49,49,28,58,58,58,3,3,3,67,67,67,62,29
,2,2,24,46,46,37,37,37,3,3,20,67,41,41,29,29
,2,51,24,24,37,37,32,53,53,20,20,41,41,41,29,29
,2,51,24,24,37,37,32,53,53,53,20,41,41,41,29,29];
